7165518170038091779508,6,1,2,010,8,1,2,011,5,1,2,03,15,1,2,011,6,1,2,04,3,1,2,010,14,1,2,09,7,1,2,011,13,1,2,06,11,1,2,06,5,1,2,07,2,1,2,02,14,1,2,01,8,1,2,05,5,1,2,014,8,1,2,09,9,1,2,02,14,1,2,015,7,1,2,013,2,1,2,08,12,1,2,04,8,1,2,08,2,1,2,05,6,1,2,08,1,1,2,014,5,1,2,012,6,1,2,06,5,1,2,02,15,1,2,011,12,1,2,012,15,1,2,07,12,1,2,02,10,1,2,06,2,1,2,012,11,1,2,08,9,1,2,05,8,1,2,04,9,1,2,010,7,1,2,05,12,1,2,015,8,1,2,02,3,1,2,012,7,1,2,014,1,1,2,04,12,1,2,07,2,1,2,06,11,1,2,03,2,1,2,013,9,1,2,04,3,1,2,0